%%%mzn-stat: initTime=0.003705923
%%%mzn-stat: objective=281
%%%mzn-stat: nodes=669
%%%mzn-stat: restarts=0
%%%mzn-stat: peakDepth=169
%%%mzn-stat: solveTime=0.048917448
%%%mzn-stat: variables=482
%%%mzn-stat: propagators=308
%%%mzn-stat: failures=386
%%%mzn-stat: propagations=33972
%%%mzn-stat: nogoods=386
%%%mzn-stat: AverageConflictSize=3.116580310880829
%%%mzn-stat: NumUnitNogoodsLearned=280
%%%mzn-stat: AverageLearnedNogoodLength=4.349740932642487
%%%mzn-stat: AverageBacktrackAmount=0
%%%mzn-stat: AverageLbd=2.233160621761658
%%%mzn-stat-end
maxleg = 281;
succ = array1d(1..50,[4, 29, 22, 40, 24, 36, 32, 39, 47, 8, 38, 11, 27, 15, 2, 42, 48, 30, 43, 25, 26, 6, 44, 28, 46, 20, 50, 33, 31, 17, 37, 19, 7, 49, 13, 18, 10, 3, 1, 5, 21, 9, 35, 45, 14, 16, 23, 41, 12, 34]);
% time elapsed: 1.96 s
----------
==========
% time elapsed: 1.96 s
%%%mzn-stat: initTime=0.003705923
%%%mzn-stat: objective=281
%%%mzn-stat: nodes=669
%%%mzn-stat: restarts=0
%%%mzn-stat: peakDepth=169
%%%mzn-stat: solveTime=0.049252241
%%%mzn-stat: variables=482
%%%mzn-stat: propagators=308
%%%mzn-stat: failures=386
%%%mzn-stat: propagations=33972
%%%mzn-stat: nogoods=386
%%%mzn-stat: AverageConflictSize=3.116580310880829
%%%mzn-stat: NumUnitNogoodsLearned=280
%%%mzn-stat: AverageLearnedNogoodLength=4.349740932642487
%%%mzn-stat: AverageBacktrackAmount=0
%%%mzn-stat: AverageLbd=2.233160621761658
%%%mzn-stat-end
